db/data/239917884320631386129213258691908417634.z3.out
-------------------
2500.116874638
